15920 100 1100 16 44 17 20 12 20 26 6 37 21 47 46 39 31 45 23 22 21 48 13 19 39 47 16 40 34 23 35 23 21 9 6 49 23 25 12 5 34 36 46 15 7 42 40 5 13 6 6 6 32 47 28 16 28 35 18 10 36 29 33 8 46 39 24 25 7 26 27 27 7 42 9 43 6 28 9 9 44 13 22 15 16 24 18 45 45 11 25 19 34 7 47 38 6 44 33 27 24 30 28 95 147 97 124 137 88 92 83 122 122 126 118 129 109 134 102 88 101 148 102 95 119 140 130 143 123 96 98 123 132 85 84 149 120 129 101 80 129 132 142 93 82 128 109 80 89 80 80 84 93 143 136 89 106 114 90 90 131 93 142 80 146 130 114 117 87 107 102 132 82 108 103 135 88 122 115 88 130 82 120 104 83 115 91 141 135 83 85 121 121 95 141 119 93 143 122 142 89 133 146
